(set-logic HORN)
(set-info :source |
    Benchmark: C_VC
    Output by Princess (http://www.philipp.ruemmer.org/princess.shtml)
|)
(set-info :status sat)
(declare-heap Heap Addr HeapObject
 defObj
 ((HeapObject 0) (node 0)) (
  (
   (O_Int (getInt Int))
   (O_UInt (getUInt Int))
   (O_Addr (getAddr Addr))
   (O_node (getnode node))
   (defObj)
  )
  (
   (node (next Addr) (data Int))
  )
))
(declare-fun inv_main12 (Heap Int Int Int Int Int Addr) Bool)
(declare-fun inv_main15 (Heap Int Int Int Int Int Addr Int) Bool)
(declare-fun inv_main18 (Heap Int Int Int Int Int Addr) Bool)
(declare-fun inv_main21 (Heap Int Int Int Int Addr Addr) Bool)
(declare-fun inv_main22 (Heap Int Int Int Int Addr Addr) Bool)
(declare-fun inv_main28 (Heap Int Int Int Int Addr Addr Int Addr) Bool)
(declare-fun inv_main31 (Heap Int Int Int Int Addr Addr Int Addr Int) Bool)
(declare-fun inv_main34 (Heap Int Int Int Int Addr Addr Int Addr) Bool)
(declare-fun inv_main36 (Heap Int Int Int Int Addr Addr Addr) Bool)
(declare-fun inv_main4 (Heap Int Int) Bool)
(declare-fun inv_main49 (Heap Int Int Addr Int Int Int Int Addr) Bool)
(declare-fun inv_main52 (Heap Int Int Addr Int Int Int Int Addr Int) Bool)
(declare-fun inv_main55 (Heap Int Int Addr Int Int Int Int Addr) Bool)
(declare-fun inv_main59 (Heap Int Int Addr Int Int Int Addr Addr Addr) Bool)
(declare-fun inv_main62 (Heap Int Int Addr Int Int Int Addr Addr Addr) Bool)
(declare-fun inv_main65 (Heap Int Int Addr Int Int Int Addr Addr Addr) Bool)
(declare-fun inv_main67 (Heap Int Int Addr Int Int Int Addr Addr Addr) Bool)
(declare-fun inv_main69 (Heap Int Int Addr Int Int Int Addr Addr Addr) Bool)
(declare-fun inv_main70 (Heap Int Int Addr Int Int Int Addr Addr Addr) Bool)
(declare-fun inv_main71 (Heap Int Int Addr Int Int Int Addr Addr Addr) Bool)
(declare-fun inv_main73 (Heap Int Int Addr Addr Int) Bool)
(declare-fun inv_main76 (Heap Int Int Addr Addr Int) Bool)
(declare-fun inv_main88 (Heap Int Int Addr Addr Int Addr) Bool)
(declare-fun inv_main92 (Heap Int Int Addr Addr Int Addr Addr) Bool)
(declare-fun inv_main95 (Heap Int Int Addr Addr Int) Bool)
(assert (forall ((var0 Int) (var1 Int) (var2 Heap)) (or (not (and (and (= var2 emptyHeap) (= var1 2)) (= var0 1))) (inv_main4 var2 var1 var0))))
(assert (forall ((var0 Heap) (var1 Addr) (var2 Addr) (var3 Addr) (var4 Int) (var5 Int) (var6 Int) (var7 Addr) (var8 Int) (var9 Int) (var10 Heap)) (or (not (and (inv_main69 var10 var9 var8 var7 var6 var5 var4 var3 var2 var1) (and (and (is-O_node (read var10 var3)) (is-O_node (read var10 var3))) (= var0 (write var10 var3 (O_node (node var7 (data (getnode (read var10 var3)))))))))) (inv_main71 var0 var9 var8 var7 var6 var5 var4 var3 var2 var1))))
(assert (forall ((var0 Int) (var1 Addr) (var2 Int) (var3 Int) (var4 Int) (var5 Int) (var6 Int) (var7 Heap)) (or (not (inv_main15 var7 var6 var5 var4 var3 var2 var1 var0)) (inv_main15 var7 var6 var5 var4 var3 var2 var1 var0))))
(assert (forall ((var0 Int) (var1 Int) (var2 Int) (var3 Int) (var4 Int) (var5 Int) (var6 node) (var7 Heap) (var8 Addr) (var9 Int) (var10 Int) (var11 Heap)) (or (not (and (inv_main4 var11 var10 var9) (and (and (= nullAddr var8) (and (and (and (and (and (and (= var7 (newHeap (alloc var11 (O_node var6)))) (= var5 var10)) (= var4 var9)) (= var3 var10)) (= var2 var9)) (= var1 var9)) (= var8 (newAddr (alloc var11 (O_node var6)))))) (= var0 1)))) (inv_main15 var7 var5 var4 var3 var2 var1 var8 var0))))
(assert (forall ((var0 Addr) (var1 Addr) (var2 Addr) (var3 Int) (var4 Int) (var5 Int) (var6 Addr) (var7 Int) (var8 Int) (var9 Heap)) (or (not (and (inv_main59 var9 var8 var7 var6 var5 var4 var3 var2 var1 var0) (and (not (= var6 nullAddr)) (and (= var1 nullAddr) (not (<= 0 (+ var3 (- 1)))))))) (inv_main69 var9 var8 var7 var6 var5 var4 var3 var2 var1 var0))))
(assert (forall ((var0 Int) (var1 Addr) (var2 Int) (var3 Addr) (var4 Addr) (var5 Int) (var6 Int) (var7 Int) (var8 Int) (var9 Heap)) (or (not (inv_main31 var9 var8 var7 var6 var5 var4 var3 var2 var1 var0)) (inv_main31 var9 var8 var7 var6 var5 var4 var3 var2 var1 var0))))
(assert (forall ((var0 Int) (var1 Int) (var2 Addr) (var3 Addr) (var4 Int) (var5 Int) (var6 Int) (var7 Int) (var8 node) (var9 Heap) (var10 Addr) (var11 Addr) (var12 Addr) (var13 Int) (var14 Int) (var15 Int) (var16 Int) (var17 Heap)) (or (not (and (inv_main21 var17 var16 var15 var14 var13 var12 var11) (and (and (and (= nullAddr var10) (and (and (and (and (and (and (and (and (= var9 (newHeap (alloc var17 (O_node var8)))) (= var7 var16)) (= var6 var15)) (= var5 var14)) (= var4 var13)) (= var3 var12)) (= var2 var11)) (= var1 var13)) (= var10 (newAddr (alloc var17 (O_node var8)))))) (<= 0 (+ (+ var14 (- 1)) (- 1)))) (= var0 1)))) (inv_main31 var9 var7 var6 var5 var4 var3 var2 var1 var10 var0))))
(assert (forall ((var0 Int) (var1 Addr) (var2 Addr) (var3 Int) (var4 Int) (var5 Int) (var6 Int) (var7 node) (var8 Heap) (var9 Addr) (var10 Addr) (var11 Addr) (var12 Int) (var13 Int) (var14 Int) (var15 Int) (var16 Heap)) (or (not (and (inv_main21 var16 var15 var14 var13 var12 var11 var10) (and (and (not (= nullAddr var9)) (and (and (and (and (and (and (and (and (= var8 (newHeap (alloc var16 (O_node var7)))) (= var6 var15)) (= var5 var14)) (= var4 var13)) (= var3 var12)) (= var2 var11)) (= var1 var10)) (= var0 var12)) (= var9 (newAddr (alloc var16 (O_node var7)))))) (<= 0 (+ (+ var13 (- 1)) (- 1)))))) (inv_main28 var8 var6 var5 var4 var3 var2 var1 var0 var9))))
(assert (forall ((var0 Int) (var1 Addr) (var2 Addr) (var3 Int) (var4 Int) (var5 Heap)) (or (not (and (inv_main73 var5 var4 var3 var2 var1 var0) (and (is-O_node (read var5 var1)) (= var3 (data (getnode (read var5 var1))))))) (inv_main76 var5 var4 var3 var2 var1 var0))))
(assert (forall ((var0 Int) (var1 Addr) (var2 Addr) (var3 Int) (var4 Int) (var5 Heap) (var6 Addr) (var7 Addr) (var8 Addr) (var9 Int) (var10 Addr) (var11 Addr) (var12 Int) (var13 Int) (var14 Heap)) (or (not (and (inv_main88 var14 var13 var12 var11 var10 var9 var8) (and (and (not (= var7 var6)) (is-O_node (read var14 var8))) (and (and (and (and (and (and (and (= var5 var14) (= var4 var13)) (= var3 var12)) (= var2 var11)) (= var1 var10)) (= var0 var9)) (= var6 var8)) (= var7 (next (getnode (read var14 var8)))))))) (inv_main92 var5 var4 var3 var2 var1 var0 var6 var7))))
(assert (forall ((var0 Addr) (var1 Int) (var2 Addr) (var3 Addr) (var4 Int) (var5 Int) (var6 Heap) (var7 Addr) (var8 Addr) (var9 Addr) (var10 Int) (var11 Addr) (var12 Addr) (var13 Int) (var14 Int) (var15 Heap) (var16 Addr) (var17 Addr) (var18 Addr) (var19 Addr) (var20 Int) (var21 Addr) (var22 Addr) (var23 Int) (var24 Int) (var25 Heap)) (or (not (and (inv_main92 var25 var24 var23 var22 var21 var20 var19 var18) (and (not (= var17 var16)) (and (and (is-O_node (read var25 var18)) (and (and (and (and (and (and (and (and (= var15 var25) (= var14 var24)) (= var13 var23)) (= var12 var22)) (= var11 var21)) (= var10 var20)) (= var9 var19)) (= var8 var18)) (= var7 (next (getnode (read var25 var18)))))) (and (and (and (and (and (and (and (and (= var6 (write var15 var8 defObj)) (= var5 var14)) (= var4 var13)) (= var3 var12)) (= var2 var11)) (= var1 var10)) (= var16 var9)) (= var0 var8)) (= var17 var7)))))) (inv_main92 var6 var5 var4 var3 var2 var1 var16 var17))))
(assert (forall ((var0 Heap) (var1 Addr) (var2 Int) (var3 Int) (var4 Int) (var5 Int) (var6 Addr) (var7 Int) (var8 Int) (var9 Heap)) (or (not (and (inv_main49 var9 var8 var7 var6 var5 var4 var3 var2 var1) (and (and (is-O_node (read var9 var1)) (is-O_node (read var9 var1))) (= var0 (write var9 var1 (O_node (node nullAddr (data (getnode (read var9 var1)))))))))) (inv_main55 var0 var8 var7 var6 var5 var4 var3 var2 var1))))
(assert (forall ((var0 Int) (var1 Int) (var2 Int) (var3 Int) (var4 Int) (var5 node) (var6 Heap) (var7 Addr) (var8 Int) (var9 Int) (var10 Heap)) (or (not (and (inv_main4 var10 var9 var8) (and (not (= nullAddr var7)) (and (and (and (and (and (and (= var6 (newHeap (alloc var10 (O_node var5)))) (= var4 var9)) (= var3 var8)) (= var2 var9)) (= var1 var8)) (= var0 var8)) (= var7 (newAddr (alloc var10 (O_node var5)))))))) (inv_main12 var6 var4 var3 var2 var1 var0 var7))))
(assert (forall ((var0 Addr) (var1 Addr) (var2 Int) (var3 Int) (var4 Int) (var5 Int) (var6 Heap)) (or (not (and (inv_main21 var6 var5 var4 var3 var2 var1 var0) (not (<= 0 (+ (+ var3 (- 1)) (- 1)))))) (inv_main22 var6 var5 var4 var3 var2 var1 var0))))
(assert (forall ((var0 Heap) (var1 Addr) (var2 Int) (var3 Int) (var4 Int) (var5 Int) (var6 Int) (var7 Heap)) (or (not (and (inv_main12 var7 var6 var5 var4 var3 var2 var1) (and (and (is-O_node (read var7 var1)) (is-O_node (read var7 var1))) (= var0 (write var7 var1 (O_node (node nullAddr (data (getnode (read var7 var1)))))))))) (inv_main18 var0 var6 var5 var4 var3 var2 var1))))
(assert (forall ((var0 Int) (var1 Addr) (var2 Addr) (var3 Int) (var4 Int) (var5 Heap)) (or (not (and (inv_main73 var5 var4 var3 var2 var1 var0) (and (is-O_node (read var5 var1)) (not (= var3 (data (getnode (read var5 var1)))))))) (inv_main95 var5 var4 var3 var2 var1 var0))))
(assert (forall ((var0 Int) (var1 Addr) (var2 Int) (var3 Heap) (var4 Addr) (var5 Addr) (var6 Int) (var7 Int) (var8 Int) (var9 Addr) (var10 Addr) (var11 Int) (var12 Int) (var13 Heap)) (or (not (and (inv_main76 var13 var12 var11 var10 var9 var8) (and (and (not (= (+ var7 1) (+ 1 var6))) (and (= var5 var4) (and (is-O_node (read var13 var9)) (and (and (and (and (and (and (= var3 var13) (= var6 var12)) (= var2 var11)) (= var4 var10)) (= var1 var9)) (= var7 var8)) (= var5 (next (getnode (read var13 var9)))))))) (= var0 (+ var7 1))))) (inv_main95 var3 var6 var2 var4 var5 var0))))
(assert (forall ((var0 Int) (var1 Int) (var2 Addr) (var3 Int) (var4 Int) (var5 Heap) (var6 Addr) (var7 Addr) (var8 Int) (var9 Addr) (var10 Addr) (var11 Int) (var12 Int) (var13 Heap)) (or (not (and (inv_main76 var13 var12 var11 var10 var9 var8) (and (and (not (= var7 var6)) (and (is-O_node (read var13 var9)) (and (and (and (and (and (and (= var5 var13) (= var4 var12)) (= var3 var11)) (= var6 var10)) (= var2 var9)) (= var1 var8)) (= var7 (next (getnode (read var13 var9))))))) (= var0 (+ var1 1))))) (inv_main73 var5 var4 var3 var6 var7 var0))))
(assert (forall ((var0 Int) (var1 Int) (var2 Int) (var3 Int) (var4 Addr) (var5 Int) (var6 Int) (var7 Heap) (var8 Addr) (var9 Addr) (var10 Addr) (var11 Int) (var12 Int) (var13 Int) (var14 Addr) (var15 Int) (var16 Int) (var17 Heap)) (or (not (and (inv_main67 var17 var16 var15 var14 var13 var12 var11 var10 var9 var8) (and (and (and (is-O_node (read var17 var10)) (is-O_node (read var17 var10))) (and (and (and (and (and (and (= var7 (write var17 var10 (O_node (node var8 (data (getnode (read var17 var10))))))) (= var6 var16)) (= var5 var15)) (= var4 var14)) (= var3 var13)) (= var2 var12)) (= var1 var11))) (= var0 0)))) (inv_main73 var7 var6 var5 var4 var4 var0))))
(assert (forall ((var0 Int) (var1 Addr) (var2 Addr) (var3 Addr) (var4 Int) (var5 Int) (var6 Int) (var7 Addr) (var8 Int) (var9 Int) (var10 Heap) (var11 Addr) (var12 Addr) (var13 Addr) (var14 Int) (var15 Int) (var16 Int) (var17 Addr) (var18 Int) (var19 Int) (var20 Heap)) (or (not (and (inv_main71 var20 var19 var18 var17 var16 var15 var14 var13 var12 var11) (and (and (and (is-O_node (read var20 var17)) (is-O_node (read var20 var17))) (and (and (and (and (and (and (and (and (and (= var10 (write var20 var17 (O_node (node var13 (data (getnode (read var20 var17))))))) (= var9 var19)) (= var8 var18)) (= var7 var17)) (= var6 var16)) (= var5 var15)) (= var4 var14)) (= var3 var13)) (= var2 var12)) (= var1 var11))) (= var0 0)))) (inv_main73 var10 var9 var8 var3 var3 var0))))
(assert (forall ((var0 Int) (var1 Addr) (var2 Addr) (var3 Addr) (var4 Int) (var5 Int) (var6 Int) (var7 Addr) (var8 Int) (var9 Int) (var10 Heap) (var11 Addr) (var12 Addr) (var13 Addr) (var14 Int) (var15 Int) (var16 Int) (var17 Addr) (var18 Int) (var19 Int) (var20 Heap)) (or (not (and (inv_main70 var20 var19 var18 var17 var16 var15 var14 var13 var12 var11) (and (and (and (is-O_node (read var20 var13)) (is-O_node (read var20 var13))) (and (and (and (and (and (and (and (and (and (= var10 (write var20 var13 (O_node (node var13 (data (getnode (read var20 var13))))))) (= var9 var19)) (= var8 var18)) (= var7 var17)) (= var6 var16)) (= var5 var15)) (= var4 var14)) (= var3 var13)) (= var2 var12)) (= var1 var11))) (= var0 0)))) (inv_main73 var10 var9 var8 var3 var3 var0))))
(assert (forall ((var0 Addr) (var1 Addr) (var2 Addr) (var3 Int) (var4 Int) (var5 Int) (var6 Addr) (var7 Int) (var8 Int) (var9 Heap)) (or (not (and (inv_main59 var9 var8 var7 var6 var5 var4 var3 var2 var1 var0) (<= 0 (+ var3 (- 1))))) (inv_main62 var9 var8 var7 var6 var5 var4 var3 var2 var0 var0))))
(assert (forall ((var0 Int) (var1 Addr) (var2 Addr) (var3 Addr) (var4 Addr) (var5 Int) (var6 Int) (var7 Int) (var8 Addr) (var9 Int) (var10 Int) (var11 Heap) (var12 Addr) (var13 Addr) (var14 Addr) (var15 Int) (var16 Int) (var17 Int) (var18 Addr) (var19 Int) (var20 Int) (var21 Heap)) (or (not (and (inv_main62 var21 var20 var19 var18 var17 var16 var15 var14 var13 var12) (and (and (is-O_node (read var21 var12)) (and (and (and (and (and (and (and (and (and (and (= var11 var21) (= var10 var20)) (= var9 var19)) (= var8 var18)) (= var7 var17)) (= var6 var16)) (= var5 var15)) (= var4 var14)) (= var3 var13)) (= var2 var12)) (= var1 (next (getnode (read var21 var12)))))) (= var0 (+ var5 (- 1)))))) (inv_main59 var11 var10 var9 var8 var7 var6 var0 var4 var3 var1))))
(assert (forall ((var0 Int) (var1 Addr) (var2 Addr) (var3 Addr) (var4 Int) (var5 Int) (var6 Int) (var7 Int) (var8 Int) (var9 Int) (var10 Addr) (var11 Addr) (var12 Int) (var13 Int) (var14 Int) (var15 Int) (var16 Heap) (var17 Heap) (var18 Addr) (var19 Int) (var20 Int) (var21 Int) (var22 Int) (var23 Addr) (var24 Int) (var25 Int) (var26 Heap)) (or (not (and (inv_main55 var26 var25 var24 var23 var22 var21 var20 var19 var18) (and (and (and (and (and (and (and (and (and (= var17 var16) (= var15 var14)) (= var13 var12)) (= var11 var10)) (= var9 var8)) (= var7 var6)) (= var5 var4)) (= var3 var2)) (= var1 nullAddr)) (and (and (is-O_node (read var26 var18)) (is-O_node (read var26 var18))) (and (and (and (and (and (and (and (and (= var16 (write var26 var18 (O_node (node (next (getnode (read var26 var18))) var19)))) (= var14 var25)) (= var12 var24)) (= var10 var23)) (= var8 var22)) (= var6 var21)) (= var4 var20)) (= var0 var19)) (= var2 var18)))))) (inv_main59 var17 var15 var13 var11 var9 var7 var5 var3 var1 var11))))
(assert (forall ((var0 Heap) (var1 Addr) (var2 Int) (var3 Addr) (var4 Addr) (var5 Int) (var6 Int) (var7 Int) (var8 Int) (var9 Heap)) (or (not (and (inv_main28 var9 var8 var7 var6 var5 var4 var3 var2 var1) (and (and (is-O_node (read var9 var1)) (is-O_node (read var9 var1))) (= var0 (write var9 var1 (O_node (node nullAddr (data (getnode (read var9 var1)))))))))) (inv_main34 var0 var8 var7 var6 var5 var4 var3 var2 var1))))
(assert (forall ((var0 Addr) (var1 Addr) (var2 Addr) (var3 Int) (var4 Int) (var5 Int) (var6 Addr) (var7 Int) (var8 Int) (var9 Heap)) (or (not (and (inv_main59 var9 var8 var7 var6 var5 var4 var3 var2 var1 var0) (and (not (= var1 nullAddr)) (not (<= 0 (+ var3 (- 1))))))) (inv_main65 var9 var8 var7 var6 var5 var4 var3 var2 var1 var0))))
(assert (forall ((var0 Addr) (var1 Int) (var2 Int) (var3 Addr) (var4 Int) (var5 Int) (var6 Heap) (var7 Int) (var8 Int) (var9 Int) (var10 Int) (var11 Int) (var12 Int) (var13 Int) (var14 Addr) (var15 Addr) (var16 Int) (var17 Int) (var18 Int) (var19 Int) (var20 node) (var21 Heap) (var22 Heap) (var23 Addr) (var24 Addr) (var25 Addr) (var26 Int) (var27 Int) (var28 Int) (var29 Int) (var30 Heap) (var31 Int)) (or (not (and (inv_main22 var30 var29 var28 var27 var26 var25 var24) (and (and (and (not (= nullAddr var23)) (and (and (and (and (and (and (and (and (= var22 (newHeap (alloc var21 (O_node var20)))) (= var19 var18)) (= var17 var16)) (= var15 var14)) (= var13 var12)) (= var11 var10)) (= var9 var8)) (= var7 var10)) (= var23 (newAddr (alloc var21 (O_node var20)))))) (and (and (and (and (and (and (= var21 var6) (= var18 var5)) (= var16 var4)) (= var14 var3)) (= var12 3)) (= var10 var4)) (and (and (and (and (<= 0 (+ (+ 2 (* (- 1) (+ var5 (* (- 2) var31)))) (- 1))) (<= 0 (+ (+ 2 (* 1 (+ var5 (* (- 2) var31)))) (- 1)))) (or (not (<= 0 (+ (+ var5 (* (- 2) var31)) (- 1)))) (<= 0 (+ var5 (- 1))))) (or (not (<= 0 (+ (* (- 1) (+ var5 (* (- 2) var31))) (- 1)))) (<= 0 (+ (* (- 1) var5) (- 1))))) (= var8 var31)))) (and (and (is-O_node (read var30 var24)) (is-O_node (read var30 var24))) (and (and (and (and (and (and (= var6 (write var30 var24 (O_node (node var25 (data (getnode (read var30 var24))))))) (= var5 var29)) (= var4 var28)) (= var2 var27)) (= var1 var26)) (= var3 var25)) (= var0 var24)))))) (inv_main49 var22 var19 var17 var15 var13 var11 var9 var7 var23))))
(assert (forall ((var0 Addr) (var1 Int) (var2 Addr) (var3 Addr) (var4 Int) (var5 Int) (var6 Int) (var7 Int) (var8 Heap) (var9 Addr) (var10 Int) (var11 Addr) (var12 Addr) (var13 Int) (var14 Int) (var15 Int) (var16 Int) (var17 Heap)) (or (not (and (inv_main34 var17 var16 var15 var14 var13 var12 var11 var10 var9) (and (and (is-O_node (read var17 var9)) (is-O_node (read var17 var9))) (and (and (and (and (and (and (and (and (= var8 (write var17 var9 (O_node (node (next (getnode (read var17 var9))) var10)))) (= var7 var16)) (= var6 var15)) (= var5 var14)) (= var4 var13)) (= var3 var12)) (= var2 var11)) (= var1 var10)) (= var0 var9))))) (inv_main36 var8 var7 var6 var5 var4 var3 var2 var0))))
(assert (forall ((var0 Addr) (var1 Addr) (var2 Addr) (var3 Int) (var4 Int) (var5 Int) (var6 Addr) (var7 Int) (var8 Int) (var9 Heap)) (or (not (and (inv_main59 var9 var8 var7 var6 var5 var4 var3 var2 var1 var0) (and (= var6 nullAddr) (and (= var1 nullAddr) (not (<= 0 (+ var3 (- 1)))))))) (inv_main70 var9 var8 var7 var6 var5 var4 var3 var2 var1 var0))))
(assert (forall ((var0 Int) (var1 Addr) (var2 Addr) (var3 Addr) (var4 Int) (var5 Int) (var6 Int) (var7 Int) (var8 Heap) (var9 Addr) (var10 Addr) (var11 Addr) (var12 Int) (var13 Int) (var14 Int) (var15 Int) (var16 Heap)) (or (not (and (inv_main36 var16 var15 var14 var13 var12 var11 var10 var9) (and (and (and (is-O_node (read var16 var9)) (is-O_node (read var16 var9))) (and (and (and (and (and (and (and (= var8 (write var16 var9 (O_node (node var11 (data (getnode (read var16 var9))))))) (= var7 var15)) (= var6 var14)) (= var5 var13)) (= var4 var12)) (= var3 var11)) (= var2 var10)) (= var1 var9))) (= var0 (+ var5 (- 1)))))) (inv_main21 var8 var7 var6 var0 var4 var1 var2))))
(assert (forall ((var0 Addr) (var1 Int) (var2 Int) (var3 Int) (var4 Int) (var5 Int) (var6 Heap) (var7 Addr) (var8 Int) (var9 Int) (var10 Int) (var11 Int) (var12 Int) (var13 Heap)) (or (not (and (inv_main18 var13 var12 var11 var10 var9 var8 var7) (and (and (is-O_node (read var13 var7)) (is-O_node (read var13 var7))) (and (and (and (and (and (and (= var6 (write var13 var7 (O_node (node (next (getnode (read var13 var7))) var8)))) (= var5 var12)) (= var4 var11)) (= var3 var10)) (= var2 var9)) (= var1 var8)) (= var0 var7))))) (inv_main21 var6 var5 var4 var3 var2 var0 var0))))
(assert (forall ((var0 Int) (var1 Addr) (var2 Int) (var3 Int) (var4 Int) (var5 Int) (var6 Addr) (var7 Int) (var8 Int) (var9 Heap)) (or (not (inv_main52 var9 var8 var7 var6 var5 var4 var3 var2 var1 var0)) (inv_main52 var9 var8 var7 var6 var5 var4 var3 var2 var1 var0))))
(assert (forall ((var0 Int) (var1 Addr) (var2 Int) (var3 Int) (var4 Addr) (var5 Int) (var6 Int) (var7 Heap) (var8 Int) (var9 Int) (var10 Int) (var11 Int) (var12 Int) (var13 Int) (var14 Int) (var15 Addr) (var16 Addr) (var17 Int) (var18 Int) (var19 Int) (var20 Int) (var21 node) (var22 Heap) (var23 Heap) (var24 Addr) (var25 Addr) (var26 Addr) (var27 Int) (var28 Int) (var29 Int) (var30 Int) (var31 Heap) (var32 Int)) (or (not (and (inv_main22 var31 var30 var29 var28 var27 var26 var25) (and (and (and (and (= nullAddr var24) (and (and (and (and (and (and (and (and (= var23 (newHeap (alloc var22 (O_node var21)))) (= var20 var19)) (= var18 var17)) (= var16 var15)) (= var14 var13)) (= var12 var11)) (= var10 var9)) (= var8 var11)) (= var24 (newAddr (alloc var22 (O_node var21)))))) (and (and (and (and (and (and (= var22 var7) (= var19 var6)) (= var17 var5)) (= var15 var4)) (= var13 3)) (= var11 var5)) (and (and (and (and (<= 0 (+ (+ 2 (* (- 1) (+ var6 (* (- 2) var32)))) (- 1))) (<= 0 (+ (+ 2 (* 1 (+ var6 (* (- 2) var32)))) (- 1)))) (or (not (<= 0 (+ (+ var6 (* (- 2) var32)) (- 1)))) (<= 0 (+ var6 (- 1))))) (or (not (<= 0 (+ (* (- 1) (+ var6 (* (- 2) var32))) (- 1)))) (<= 0 (+ (* (- 1) var6) (- 1))))) (= var9 var32)))) (and (and (is-O_node (read var31 var25)) (is-O_node (read var31 var25))) (and (and (and (and (and (and (= var7 (write var31 var25 (O_node (node var26 (data (getnode (read var31 var25))))))) (= var6 var30)) (= var5 var29)) (= var3 var28)) (= var2 var27)) (= var4 var26)) (= var1 var25)))) (= var0 1)))) (inv_main52 var23 var20 var18 var16 var14 var12 var10 var8 var24 var0))))
(assert (forall ((var0 Int) (var1 Addr) (var2 Int) (var3 Heap) (var4 Addr) (var5 Int) (var6 Int) (var7 Addr) (var8 Int) (var9 Addr) (var10 Addr) (var11 Int) (var12 Int) (var13 Heap)) (or (not (and (inv_main76 var13 var12 var11 var10 var9 var8) (and (and (not (= nullAddr var7)) (and (= (+ var6 1) (+ 1 var5)) (and (= var4 var7) (and (is-O_node (read var13 var9)) (and (and (and (and (and (and (= var3 var13) (= var5 var12)) (= var2 var11)) (= var7 var10)) (= var1 var9)) (= var6 var8)) (= var4 (next (getnode (read var13 var9))))))))) (= var0 (+ var6 1))))) (inv_main88 var3 var5 var2 var7 var4 var0 var7))))
(assert (forall ((var0 Heap) (var1 Addr) (var2 Addr) (var3 Addr) (var4 Int) (var5 Int) (var6 Int) (var7 Addr) (var8 Int) (var9 Int) (var10 Heap)) (or (not (and (inv_main65 var10 var9 var8 var7 var6 var5 var4 var3 var2 var1) (and (and (is-O_node (read var10 var2)) (is-O_node (read var10 var2))) (= var0 (write var10 var2 (O_node (node var3 (data (getnode (read var10 var2)))))))))) (inv_main67 var0 var9 var8 var7 var6 var5 var4 var3 var2 var1))))
(assert (forall ((var0 Addr) (var1 Int) (var2 Int) (var3 Int) (var4 Int) (var5 Int) (var6 Heap)) (not (and (inv_main12 var6 var5 var4 var3 var2 var1 var0) (not (is-O_node (read var6 var0)))))))
(assert (forall ((var0 Addr) (var1 Int) (var2 Int) (var3 Int) (var4 Int) (var5 Int) (var6 Heap)) (not (and (inv_main12 var6 var5 var4 var3 var2 var1 var0) (and (is-O_node (read var6 var0)) (not (is-O_node (read var6 var0))))))))
(assert (forall ((var0 Addr) (var1 Int) (var2 Int) (var3 Int) (var4 Int) (var5 Int) (var6 Heap)) (not (and (inv_main18 var6 var5 var4 var3 var2 var1 var0) (not (is-O_node (read var6 var0)))))))
(assert (forall ((var0 Addr) (var1 Int) (var2 Int) (var3 Int) (var4 Int) (var5 Int) (var6 Heap)) (not (and (inv_main18 var6 var5 var4 var3 var2 var1 var0) (and (is-O_node (read var6 var0)) (not (is-O_node (read var6 var0))))))))
(assert (forall ((var0 Addr) (var1 Int) (var2 Addr) (var3 Addr) (var4 Int) (var5 Int) (var6 Int) (var7 Int) (var8 Heap)) (not (and (inv_main28 var8 var7 var6 var5 var4 var3 var2 var1 var0) (not (is-O_node (read var8 var0)))))))
(assert (forall ((var0 Addr) (var1 Int) (var2 Addr) (var3 Addr) (var4 Int) (var5 Int) (var6 Int) (var7 Int) (var8 Heap)) (not (and (inv_main28 var8 var7 var6 var5 var4 var3 var2 var1 var0) (and (is-O_node (read var8 var0)) (not (is-O_node (read var8 var0))))))))
(assert (forall ((var0 Addr) (var1 Int) (var2 Addr) (var3 Addr) (var4 Int) (var5 Int) (var6 Int) (var7 Int) (var8 Heap)) (not (and (inv_main34 var8 var7 var6 var5 var4 var3 var2 var1 var0) (not (is-O_node (read var8 var0)))))))
(assert (forall ((var0 Addr) (var1 Int) (var2 Addr) (var3 Addr) (var4 Int) (var5 Int) (var6 Int) (var7 Int) (var8 Heap)) (not (and (inv_main34 var8 var7 var6 var5 var4 var3 var2 var1 var0) (and (is-O_node (read var8 var0)) (not (is-O_node (read var8 var0))))))))
(assert (forall ((var0 Addr) (var1 Addr) (var2 Addr) (var3 Int) (var4 Int) (var5 Int) (var6 Int) (var7 Heap)) (not (and (inv_main36 var7 var6 var5 var4 var3 var2 var1 var0) (not (is-O_node (read var7 var0)))))))
(assert (forall ((var0 Addr) (var1 Addr) (var2 Addr) (var3 Int) (var4 Int) (var5 Int) (var6 Int) (var7 Heap)) (not (and (inv_main36 var7 var6 var5 var4 var3 var2 var1 var0) (and (is-O_node (read var7 var0)) (not (is-O_node (read var7 var0))))))))
(assert (forall ((var0 Addr) (var1 Addr) (var2 Int) (var3 Int) (var4 Int) (var5 Int) (var6 Heap)) (not (and (inv_main22 var6 var5 var4 var3 var2 var1 var0) (not (is-O_node (read var6 var0)))))))
(assert (forall ((var0 Addr) (var1 Addr) (var2 Int) (var3 Int) (var4 Int) (var5 Int) (var6 Heap)) (not (and (inv_main22 var6 var5 var4 var3 var2 var1 var0) (and (is-O_node (read var6 var0)) (not (is-O_node (read var6 var0))))))))
(assert (forall ((var0 Addr) (var1 Int) (var2 Int) (var3 Int) (var4 Int) (var5 Addr) (var6 Int) (var7 Int) (var8 Heap)) (not (and (inv_main49 var8 var7 var6 var5 var4 var3 var2 var1 var0) (not (is-O_node (read var8 var0)))))))
(assert (forall ((var0 Addr) (var1 Int) (var2 Int) (var3 Int) (var4 Int) (var5 Addr) (var6 Int) (var7 Int) (var8 Heap)) (not (and (inv_main49 var8 var7 var6 var5 var4 var3 var2 var1 var0) (and (is-O_node (read var8 var0)) (not (is-O_node (read var8 var0))))))))
(assert (forall ((var0 Addr) (var1 Int) (var2 Int) (var3 Int) (var4 Int) (var5 Addr) (var6 Int) (var7 Int) (var8 Heap)) (not (and (inv_main55 var8 var7 var6 var5 var4 var3 var2 var1 var0) (not (is-O_node (read var8 var0)))))))
(assert (forall ((var0 Addr) (var1 Int) (var2 Int) (var3 Int) (var4 Int) (var5 Addr) (var6 Int) (var7 Int) (var8 Heap)) (not (and (inv_main55 var8 var7 var6 var5 var4 var3 var2 var1 var0) (and (is-O_node (read var8 var0)) (not (is-O_node (read var8 var0))))))))
(assert (forall ((var0 Addr) (var1 Addr) (var2 Addr) (var3 Int) (var4 Int) (var5 Int) (var6 Addr) (var7 Int) (var8 Int) (var9 Heap)) (not (and (inv_main62 var9 var8 var7 var6 var5 var4 var3 var2 var1 var0) (not (is-O_node (read var9 var0)))))))
(assert (forall ((var0 Addr) (var1 Addr) (var2 Addr) (var3 Int) (var4 Int) (var5 Int) (var6 Addr) (var7 Int) (var8 Int) (var9 Heap)) (not (and (inv_main65 var9 var8 var7 var6 var5 var4 var3 var2 var1 var0) (not (is-O_node (read var9 var1)))))))
(assert (forall ((var0 Addr) (var1 Addr) (var2 Addr) (var3 Int) (var4 Int) (var5 Int) (var6 Addr) (var7 Int) (var8 Int) (var9 Heap)) (not (and (inv_main65 var9 var8 var7 var6 var5 var4 var3 var2 var1 var0) (and (is-O_node (read var9 var1)) (not (is-O_node (read var9 var1))))))))
(assert (forall ((var0 Addr) (var1 Addr) (var2 Addr) (var3 Int) (var4 Int) (var5 Int) (var6 Addr) (var7 Int) (var8 Int) (var9 Heap)) (not (and (inv_main67 var9 var8 var7 var6 var5 var4 var3 var2 var1 var0) (not (is-O_node (read var9 var2)))))))
(assert (forall ((var0 Addr) (var1 Addr) (var2 Addr) (var3 Int) (var4 Int) (var5 Int) (var6 Addr) (var7 Int) (var8 Int) (var9 Heap)) (not (and (inv_main67 var9 var8 var7 var6 var5 var4 var3 var2 var1 var0) (and (is-O_node (read var9 var2)) (not (is-O_node (read var9 var2))))))))
(assert (forall ((var0 Addr) (var1 Addr) (var2 Addr) (var3 Int) (var4 Int) (var5 Int) (var6 Addr) (var7 Int) (var8 Int) (var9 Heap)) (not (and (inv_main69 var9 var8 var7 var6 var5 var4 var3 var2 var1 var0) (not (is-O_node (read var9 var2)))))))
(assert (forall ((var0 Addr) (var1 Addr) (var2 Addr) (var3 Int) (var4 Int) (var5 Int) (var6 Addr) (var7 Int) (var8 Int) (var9 Heap)) (not (and (inv_main69 var9 var8 var7 var6 var5 var4 var3 var2 var1 var0) (and (is-O_node (read var9 var2)) (not (is-O_node (read var9 var2))))))))
(assert (forall ((var0 Addr) (var1 Addr) (var2 Addr) (var3 Int) (var4 Int) (var5 Int) (var6 Addr) (var7 Int) (var8 Int) (var9 Heap)) (not (and (inv_main71 var9 var8 var7 var6 var5 var4 var3 var2 var1 var0) (not (is-O_node (read var9 var6)))))))
(assert (forall ((var0 Addr) (var1 Addr) (var2 Addr) (var3 Int) (var4 Int) (var5 Int) (var6 Addr) (var7 Int) (var8 Int) (var9 Heap)) (not (and (inv_main71 var9 var8 var7 var6 var5 var4 var3 var2 var1 var0) (and (is-O_node (read var9 var6)) (not (is-O_node (read var9 var6))))))))
(assert (forall ((var0 Addr) (var1 Addr) (var2 Addr) (var3 Int) (var4 Int) (var5 Int) (var6 Addr) (var7 Int) (var8 Int) (var9 Heap)) (not (and (inv_main70 var9 var8 var7 var6 var5 var4 var3 var2 var1 var0) (not (is-O_node (read var9 var2)))))))
(assert (forall ((var0 Addr) (var1 Addr) (var2 Addr) (var3 Int) (var4 Int) (var5 Int) (var6 Addr) (var7 Int) (var8 Int) (var9 Heap)) (not (and (inv_main70 var9 var8 var7 var6 var5 var4 var3 var2 var1 var0) (and (is-O_node (read var9 var2)) (not (is-O_node (read var9 var2))))))))
(assert (forall ((var0 Int) (var1 Addr) (var2 Addr) (var3 Int) (var4 Int) (var5 Heap)) (not (and (inv_main73 var5 var4 var3 var2 var1 var0) (not (is-O_node (read var5 var1)))))))
(assert (forall ((var0 Int) (var1 Addr) (var2 Addr) (var3 Int) (var4 Int) (var5 Heap)) (not (and (inv_main76 var5 var4 var3 var2 var1 var0) (not (is-O_node (read var5 var1)))))))
(assert (forall ((var0 Addr) (var1 Int) (var2 Addr) (var3 Addr) (var4 Int) (var5 Int) (var6 Heap)) (not (and (inv_main88 var6 var5 var4 var3 var2 var1 var0) (not (is-O_node (read var6 var0)))))))
(assert (forall ((var0 Addr) (var1 Addr) (var2 Int) (var3 Addr) (var4 Addr) (var5 Int) (var6 Int) (var7 Heap)) (not (and (inv_main92 var7 var6 var5 var4 var3 var2 var1 var0) (not (is-O_node (read var7 var0)))))))
(assert (forall ((var0 Int) (var1 Addr) (var2 Addr) (var3 Int) (var4 Int) (var5 Heap)) (not (inv_main95 var5 var4 var3 var2 var1 var0))))
(check-sat)
